(set-info :smt-lib-version 2.6)
(set-info :category "crafted")
(set-logic QF_FFA)
(define-sort FF0 () (_ FiniteField 52435875175126190479447740508185965837690552500527637822603658699938581184513))
(declare-fun a () Bool)
(declare-fun b () Bool)
(declare-fun d () Bool)
(declare-fun c () Bool)
(declare-fun return_n2 () FF0)
(declare-fun mul_n35 () FF0)
(declare-fun mul_n30 () FF0)
(declare-fun mul_n14 () FF0)
(declare-fun mul_n10 () FF0)
(declare-fun mul_n39 () FF0)
(declare-fun is_zero_n13 () FF0)
(declare-fun mul_n29 () FF0)
(declare-fun is_zero_inv_n40 () FF0)
(declare-fun b_n3 () FF0)
(declare-fun mul_n38 () FF0)
(declare-fun mul_n37 () FF0)
(declare-fun is_zero_n34 () FF0)
(declare-fun is_zero_n17 () FF0)
(declare-fun mul_n36 () FF0)
(declare-fun mul_n18 () FF0)
(declare-fun mul_n31 () FF0)
(declare-fun is_zero_n6 () FF0)
(declare-fun is_zero_n22 () FF0)
(declare-fun mul_n9 () FF0)
(declare-fun mul_n8 () FF0)
(declare-fun a_n4 () FF0)
(declare-fun mul_n20 () FF0)
(declare-fun mul_n7 () FF0)
(declare-fun mul_n32 () FF0)
(declare-fun is_zero_inv_n33 () FF0)
(declare-fun mul_n23 () FF0)
(declare-fun c_n1 () FF0)
(declare-fun mul_n15 () FF0)
(declare-fun mul_n28 () FF0)
(declare-fun mul_n26 () FF0)
(declare-fun mul_n27 () FF0)
(declare-fun mul_n11 () FF0)
(declare-fun mul_n25 () FF0)
(declare-fun mul_n24 () FF0)
(declare-fun d_n0 () FF0)
(declare-fun mul_n19 () FF0)
(declare-fun is_zero_inv_n21 () FF0)
(declare-fun is_zero_inv_n16 () FF0)
(declare-fun is_zero_inv_n12 () FF0)
(declare-fun is_zero_inv_n5 () FF0)
(assert 
  (let ((let0 a))
  (let ((let1 b))
  (let ((let2 d))
  (let ((let3 c))
  (let ((let4 (and let0 let3 let1 let2)))
  (let ((let5 (= let0 let4)))
  (let ((let6 (= let5 let1)))
  (let ((let7 (= let6 let6)))
  (let ((let8 (=> let7 let0)))
  (let ((let9 (not let8)))
  (let ((let10 (ite let1 let2 let3)))
  (let ((let11 (or let5 let10 let3 let10)))
  (let ((let12 (= let11 let9)))
  (let ((let13 (not let12)))
  (let ((let14 (ite let10 let0 let4)))
  (let ((let15 (and let14 let7 let8 let5 let4)))
  (let ((let16 (ite let14 let11 let15)))
  (let ((let17 (not let11)))
  (let ((let18 (ite let17 let16 let12)))
  (let ((let19 (ite let16 let17 let15)))
  (let ((let20 (and let19 let19 let6 let18 let14 let2)))
  (let ((let21 (= let9 let9)))
  (let ((let22 (or let21 let4 let20)))
  (let ((let23 (=> let22 let6)))
  (let ((let24 (= let10 let21)))
  (let ((let25 (or let24 let23 let15)))
  (let ((let26 (=> let14 let17)))
  (let ((let27 (=> let17 let3)))
  (let ((let28 (ite let12 let21 let19)))
  (let ((let29 (and let28 let20 let28 let7)))
  (let ((let30 (and let29 let27)))
  (let ((let31 (= let16 let12)))
  (let ((let32 (=> let31 let29)))
  (let ((let33 (or let32 let8 let1)))
  (let ((let34 (and let33 let30 let26 let25 let13 let9)))
  (let ((let35 return_n2))
  (let ((let36 (as ff1 FF0)))
  (let ((let37 (= let36 let35)))
  (let ((let38 (= let37 let34)))
  (let ((let39 (as ff0 FF0)))
  (let ((let40 (= let39 let35)))
  (let ((let41 (or let37 let40)))
  (let ((let42 (and let41 let38)))
  (let ((let43 (as ff52435875175126190479447740508185965837690552500527637822603658699938581184512 FF0)))
  (let ((let44 (ff.mul let35 let43)))
  (let ((let45 (ff.add let44 let36)))
  (let ((let46 (as ff2 FF0)))
  (let ((let47 mul_n35))
  (let ((let48 (ff.mul let47 let43)))
  (let ((let49 mul_n30))
  (let ((let50 mul_n14))
  (let ((let51 (as ff52435875175126190479447740508185965837690552500527637822603658699938581184511 FF0)))
  (let ((let52 mul_n10))
  (let ((let53 (ff.mul let52 let51)))
  (let ((let54 mul_n39))
  (let ((let55 is_zero_n13))
  (let ((let56 mul_n29))
  (let ((let57 (ff.add let56 let55 let54 let53 let50 let49 let48 let46)))
  (let ((let58 is_zero_inv_n40))
  (let ((let59 (ff.mul let58 let57)))
  (let ((let60 (= let59 let45)))
  (let ((let61 b_n3))
  (let ((let62 (ff.mul let61 let43)))
  (let ((let63 (ff.add let62 let36)))
  (let ((let64 mul_n38))
  (let ((let65 (ff.mul let64 let63)))
  (let ((let66 (= let65 let54)))
  (let ((let67 mul_n37))
  (let ((let68 (ff.mul let67 let52)))
  (let ((let69 (= let68 let64)))
  (let ((let70 is_zero_n34))
  (let ((let71 (ff.mul let70 let43)))
  (let ((let72 (ff.add let71 let36)))
  (let ((let73 (ff.mul let50 let43)))
  (let ((let74 is_zero_n17))
  (let ((let75 (ff.mul let74 let43)))
  (let ((let76 mul_n36))
  (let ((let77 mul_n18))
  (let ((let78 (ff.mul let77 let43)))
  (let ((let79 (ff.mul let55 let43)))
  (let ((let80 (ff.add let79 let78 let52 let76 let75 let73 let36)))
  (let ((let81 (ff.mul let80 let72)))
  (let ((let82 (= let81 let67)))
  (let ((let83 (ff.mul let52 let43)))
  (let ((let84 (ff.add let55 let50 let83)))
  (let ((let85 (ff.mul let77 let46)))
  (let ((let86 (ff.mul let74 let46)))
  (let ((let87 (ff.add let86 let85)))
  (let ((let88 (ff.mul let87 let84)))
  (let ((let89 (= let88 let76)))
  (let ((let90 mul_n31))
  (let ((let91 (ff.mul let90 let43)))
  (let ((let92 (ff.add let91 let36)))
  (let ((let93 (ff.mul let70 let92)))
  (let ((let94 (= let93 let47)))
  (let ((let95 (as ff3 FF0)))
  (let ((let96 is_zero_n6))
  (let ((let97 (ff.mul let96 let46)))
  (let ((let98 is_zero_n22))
  (let ((let99 (ff.mul let98 let43)))
  (let ((let100 mul_n9))
  (let ((let101 (ff.mul let100 let43)))
  (let ((let102 mul_n8))
  (let ((let103 (ff.mul let102 let46)))
  (let ((let104 a_n4))
  (let ((let105 (ff.mul let104 let46)))
  (let ((let106 (ff.mul let74 let51)))
  (let ((let107 mul_n20))
  (let ((let108 (ff.mul let107 let51)))
  (let ((let109 mul_n7))
  (let ((let110 (ff.mul let109 let51)))
  (let ((let111 (ff.mul let61 let51)))
  (let ((let112 mul_n32))
  (let ((let113 (ff.mul let112 let51)))
  (let ((let114 (ff.add let113 let111 let110 let108 let106 let105 let103 let101 let99 let97 let95)))
  (let ((let115 (ff.mul let70 let114)))
  (let ((let116 (= let115 let39)))
  (let ((let117 is_zero_inv_n33))
  (let ((let118 (ff.mul let117 let114)))
  (let ((let119 (= let118 let72)))
  (let ((let120 (ff.mul let107 let43)))
  (let ((let121 mul_n23))
  (let ((let122 (ff.add let53 let121 let120 let75 let36)))
  (let ((let123 (ff.mul let84 let122)))
  (let ((let124 (= let123 let112)))
  (let ((let125 c_n1))
  (let ((let126 (ff.mul let125 let43)))
  (let ((let127 (ff.add let126 let36)))
  (let ((let128 (ff.mul let55 let127)))
  (let ((let129 (= let128 let90)))
  (let ((let130 (ff.add let79 let36)))
  (let ((let131 mul_n15))
  (let ((let132 (ff.add let96 let131)))
  (let ((let133 (ff.mul let132 let130)))
  (let ((let134 (= let133 let49)))
  (let ((let135 (ff.add let75 let36)))
  (let ((let136 mul_n28))
  (let ((let137 (ff.mul let136 let135)))
  (let ((let138 (= let137 let56)))
  (let ((let139 mul_n26))
  (let ((let140 mul_n27))
  (let ((let141 (ff.mul let140 let43)))
  (let ((let142 mul_n11))
  (let ((let143 (ff.add let142 let53 let121 let125 let141 let36)))
  (let ((let144 (ff.mul let143 let139)))
  (let ((let145 (= let144 let136)))
  (let ((let146 (ff.add let53 let121 let36)))
  (let ((let147 (ff.mul let142 let46)))
  (let ((let148 (ff.mul let125 let46)))
  (let ((let149 (ff.add let148 let147)))
  (let ((let150 (ff.mul let149 let146)))
  (let ((let151 (= let150 let140)))
  (let ((let152 (ff.mul let96 let43)))
  (let ((let153 (ff.mul let104 let43)))
  (let ((let154 (ff.mul let102 let43)))
  (let ((let155 (ff.add let154 let109 let153 let152 let61 let36)))
  (let ((let156 mul_n25))
  (let ((let157 (ff.mul let156 let43)))
  (let ((let158 (ff.add let157 let36)))
  (let ((let159 (ff.mul let158 let155)))
  (let ((let160 (= let159 let139)))
  (let ((let161 (ff.add let99 let36)))
  (let ((let162 mul_n24))
  (let ((let163 (ff.mul let162 let161)))
  (let ((let164 (= let163 let156)))
  (let ((let165 (ff.add let152 let36)))
  (let ((let166 (ff.mul let121 let43)))
  (let ((let167 (ff.mul let52 let46)))
  (let ((let168 (ff.add let167 let166)))
  (let ((let169 (ff.mul let168 let165)))
  (let ((let170 (= let169 let162)))
  (let ((let171 (ff.mul let167 let52)))
  (let ((let172 (= let171 let121)))
  (let ((let173 (as ff6 FF0)))
  (let ((let174 (ff.mul let96 let51)))
  (let ((let175 (ff.mul let131 let43)))
  (let ((let176 d_n0))
  (let ((let177 (ff.mul let176 let43)))
  (let ((let178 mul_n19))
  (let ((let179 (ff.mul let178 let43)))
  (let ((let180 (ff.add let179 let79 let52 let109 let108 let106 let153 let73 let154 let177 let175 let174 let61 let173)))
  (let ((let181 (ff.mul let98 let180)))
  (let ((let182 (= let181 let39)))
  (let ((let183 is_zero_inv_n21))
  (let ((let184 (ff.mul let183 let180)))
  (let ((let185 (= let184 let161)))
  (let ((let186 (ff.add let55 let75)))
  (let ((let187 (ff.add let74 let77)))
  (let ((let188 (ff.mul let187 let186)))
  (let ((let189 (= let188 let107)))
  (let ((let190 (ff.add let79 let77 let52 let74 let73)))
  (let ((let191 (ff.mul let55 let190)))
  (let ((let192 (= let191 let178)))
  (let ((let193 (ff.add let79 let75 let36)))
  (let ((let194 (ff.mul let132 let193)))
  (let ((let195 (= let194 let77)))
  (let ((let196 (ff.mul let104 let95)))
  (let ((let197 (as ff52435875175126190479447740508185965837690552500527637822603658699938581184510 FF0)))
  (let ((let198 (ff.mul let109 let197)))
  (let ((let199 (ff.add let52 let198 let196 let103 let175 let101 let96 let111 let46)))
  (let ((let200 (ff.mul let74 let199)))
  (let ((let201 (= let200 let39)))
  (let ((let202 is_zero_inv_n16))
  (let ((let203 (ff.mul let202 let199)))
  (let ((let204 (= let203 let135)))
  (let ((let205 (ff.add let104 let152)))
  (let ((let206 (ff.add let125 let142)))
  (let ((let207 (ff.mul let206 let205)))
  (let ((let208 (= let207 let131)))
  (let ((let209 (ff.mul let55 let51)))
  (let ((let210 (ff.add let209 let46)))
  (let ((let211 (ff.mul let210 let52)))
  (let ((let212 (= let211 let50)))
  (let ((let213 (ff.mul let125 let95)))
  (let ((let214 (ff.add let109 let153 let213 let152 let147 let36)))
  (let ((let215 (ff.mul let55 let214)))
  (let ((let216 (= let215 let39)))
  (let ((let217 is_zero_inv_n12))
  (let ((let218 (ff.mul let217 let214)))
  (let ((let219 (= let218 let130)))
  (let ((let220 (ff.add let176 let126)))
  (let ((let221 (ff.mul let61 let220)))
  (let ((let222 (= let221 let142)))
  (let ((let223 (ff.add let153 let36)))
  (let ((let224 (ff.mul let61 let46)))
  (let ((let225 (ff.mul let104 let51)))
  (let ((let226 (ff.mul let109 let46)))
  (let ((let227 (ff.mul let102 let51)))
  (let ((let228 (ff.add let227 let226 let225 let100 let174 let224 let36)))
  (let ((let229 (ff.mul let228 let223)))
  (let ((let230 (= let229 let52)))
  (let ((let231 (ff.mul let109 let43)))
  (let ((let232 (ff.add let102 let231 let104 let96 let62)))
  (let ((let233 (ff.add let103 let110 let105 let97 let111)))
  (let ((let234 (ff.mul let233 let232)))
  (let ((let235 (= let234 let100)))
  (let ((let236 (ff.add let225 let174 let226 let46)))
  (let ((let237 (ff.mul let236 let61)))
  (let ((let238 (= let237 let102)))
  (let ((let239 (ff.mul let105 let96)))
  (let ((let240 (= let239 let109)))
  (let ((let241 (as ff4 FF0)))
  (let ((let242 (ff.add let177 let153 let126 let62 let241)))
  (let ((let243 (ff.mul let96 let242)))
  (let ((let244 (= let243 let39)))
  (let ((let245 is_zero_inv_n5))
  (let ((let246 (ff.mul let245 let242)))
  (let ((let247 (= let246 let165)))
  (let ((let248 (and let247 let244 let240 let238 let235 let230 let222 let219 let216 let212 let208 let204 let201 let195 let192 let189 let185 let182 let172 let170 let164 let160 let151 let145 let138 let134 let129 let124 let119 let116 let94 let89 let82 let69 let66 let60)))
  (let ((let249 (ite let0 let36 let39)))
  (let ((let250 (= let104 let249)))
  (let ((let251 (ite let3 let36 let39)))
  (let ((let252 (= let125 let251)))
  (let ((let253 (ite let2 let36 let39)))
  (let ((let254 (= let176 let253)))
  (let ((let255 (ite let1 let36 let39)))
  (let ((let256 (= let61 let255)))
  (let ((let257 (and let256 let254 let252 let250)))
  (let ((let258 (and let257 let248)))
  (let ((let259 (=> let258 let42)))
  (let ((let260 (not let259)))
  let260
)))))))))))))))))))))))))))))))))))))))))))))))))))))))))))))))))))))))))))))))))))))))))))))))))))))))))))))))))))))))))))))))))))))))))))))))))))))))))))))))))))))))))))))))))))))))))))))))))))))))))))))))))))))))))))))))))))))))))))))))))))))))))))))))))))))
)
(check-sat)
